0 3160
1 3154
6 3139
7 3137
8 3090
14 3016
20 2998
29 2932
33 2898
45 2884
50 2879
67 2878
83 2875
135 2869
136 2854
142 2831
146 2825
278 2819
294 2804
316 2803
333 2792
337 2789
371 2788
376 2784
390 2777
394 2773
395 2761
643 2756
724 2752
3183 2748
3253 2742
3995 2740
4036 2737
4106 2735
136639 2731
136647 2729
136839 2724
